Grasp exp. instance_n_15_m_5_id_2.lp tipoLifted 0 szPool 5 nIteration 100 alpha 0.8 
Academic license - for non-commercial use only
Read LP format model from file ../input/instancesGenerated/instance_n_15_m_5_id_2.lp
Reading time = 0.00 seconds
: 5 rows, 15 columns, 75 nonzeros
Optimize a model with 5 rows, 15 columns and 75 nonzeros
Variable types: 0 continuous, 15 integer (15 binary)
Coefficient statistics:
  Matrix range     [1e+00, 1e+01]
  Objective range  [1e+00, 1e+01]
  Bounds range     [1e+00, 1e+00]
  RHS range        [4e+01, 5e+01]
Found heuristic solution: objective 36.0000000

Explored 0 nodes (0 simplex iterations) in 0.00 seconds
Thread count was 1 (of 8 available processors)

Solution count 1: 36 
No other solutions better than 0

Solution limit reached
Best objective 3.600000000000e+01, best bound -, gap -
C_1:	 6.00 x_1  = 1.000000 + 6.00 x_2  = 0.000000 + 1.00 x_3  = 0.000000 + 4.00 x_4  = 1.000000 + 5.00 x_5  = 0.101545 + 9.00 x_6  = 0.253863 + 9.00 x_7  = 0.112583 + 2.00 x_8  = 1.000000 + 4.00 x_9  = 0.000000 + 1.00 x_10  = 1.000000 + 6.00 x_11  = 1.000000 + 2.00 x_12  = 0.000000 + 7.00 x_13  = 1.000000 + 8.00 x_14  = 0.024283 + 9.00 x_15  = 1.000000 <= 39.00
C_2:	 4.00 x_1  = 1.000000 + 9.00 x_2  = 0.000000 + 2.00 x_3  = 0.000000 + 7.00 x_4  = 1.000000 + 8.00 x_5  = 0.101545 + 7.00 x_6  = 0.253863 + 3.00 x_7  = 0.112583 + 7.00 x_8  = 1.000000 + 7.00 x_9  = 0.000000 + 10.00 x_10  = 1.000000 + 6.00 x_11  = 1.000000 + 5.00 x_12  = 0.000000 + 2.00 x_13  = 1.000000 + 3.00 x_14  = 0.024283 + 1.00 x_15  = 1.000000 <= 40.00
C_3:	 8.00 x_1  = 1.000000 + 9.00 x_2  = 0.000000 + 8.00 x_3  = 0.000000 + 1.00 x_4  = 1.000000 + 4.00 x_5  = 0.101545 + 2.00 x_6  = 0.253863 + 9.00 x_7  = 0.112583 + 5.00 x_8  = 1.000000 + 5.00 x_9  = 0.000000 + 4.00 x_10  = 1.000000 + 5.00 x_11  = 1.000000 + 3.00 x_12  = 0.000000 + 5.00 x_13  = 1.000000 + 3.00 x_14  = 0.024283 + 10.00 x_15  = 1.000000 <= 40.00
C_4:	 6.00 x_1  = 1.000000 + 7.00 x_2  = 0.000000 + 8.00 x_3  = 0.000000 + 7.00 x_4  = 1.000000 + 3.00 x_5  = 0.101545 + 7.00 x_6  = 0.253863 + 6.00 x_7  = 0.112583 + 7.00 x_8  = 1.000000 + 5.00 x_9  = 0.000000 + 2.00 x_10  = 1.000000 + 9.00 x_11  = 1.000000 + 1.00 x_12  = 0.000000 + 7.00 x_13  = 1.000000 + 10.00 x_14  = 0.024283 + 3.00 x_15  = 1.000000 <= 44.00
C_5:	 9.00 x_1  = 1.000000 + 9.00 x_2  = 0.000000 + 3.00 x_3  = 0.000000 + 7.00 x_4  = 1.000000 + 9.00 x_5  = 0.101545 + 9.00 x_6  = 0.253863 + 10.00 x_7  = 0.112583 + 10.00 x_8  = 1.000000 + 3.00 x_9  = 0.000000 + 7.00 x_10  = 1.000000 + 3.00 x_11  = 1.000000 + 9.00 x_12  = 0.000000 + 9.00 x_13  = 1.000000 + 10.00 x_14  = 0.024283 + 1.00 x_15  = 1.000000 <= 54.00
Solution initial: 64.344371 
Number Constraints Used in Cover:5
GRASP Method!
Number cuts repeat: 0
value: 64.344371
Number Constraints Used in Cover:9
GRASP Method!
Number cuts repeat: 0
value: 64.344371
Number Constraints Used in Cover:17
GRASP Method!
Number cuts repeat: 0
value: 64.344371
Number Constraints Used in Cover:26
GRASP Method!
Number cuts repeat: 0
value: 64.344371
Number Constraints Used in Cover:37
GRASP Method!
Number cuts repeat: 0
value: 64.344371
Number Constraints Used in Cover:45
GRASP Method!
Number cuts repeat: 0
value: 64.344371
Number Constraints Used in Cover:54
GRASP Method!
Number cuts repeat: 0
value: 64.344371
Number Constraints Used in Cover:59
GRASP Method!
Number cuts repeat: 0
value: 64.344371
Number Constraints Used in Cover:68
GRASP Method!
Number cuts repeat: 0
value: 64.344371
Number Constraints Used in Cover:88
GRASP Method!
Number cuts repeat: 0
value: 64.344371
Number Constraints Used in Cover:98
GRASP Method!
Number cuts repeat: 0
value: 64.344371
Number Constraints Used in Cover:114
GRASP Method!
Number cuts repeat: 0
value: 64.344371
Number Constraints Used in Cover:132
GRASP Method!
Number cuts repeat: 0
value: 64.344371
Number Constraints Used in Cover:144
GRASP Method!
Number cuts repeat: 0
value: 64.344371
Number Constraints Used in Cover:154
GRASP Method!
Number cuts repeat: 0
value: 63.920306
Number Constraints Used in Cover:167
GRASP Method!
Number cuts repeat: 0
value: 63.920306
Number Constraints Used in Cover:176
GRASP Method!
Number cuts repeat: 0
value: 63.920306
Number Constraints Used in Cover:191
GRASP Method!
Number cuts repeat: 0
value: 63.920306
Number Constraints Used in Cover:201
GRASP Method!
Number cuts repeat: 0
value: 63.920306
Number Constraints Used in Cover:213
GRASP Method!
Number cuts repeat: 0
value: 63.920306
Number Constraints Used in Cover:232
GRASP Method!
Number cuts repeat: 0
value: 63.920306
Number Constraints Used in Cover:247
GRASP Method!
Number cuts repeat: 0
value: 63.920306
Number Constraints Used in Cover:259
GRASP Method!
Number cuts repeat: 0
value: 63.920306
Number Constraints Used in Cover:264
GRASP Method!
Number cuts repeat: 0
value: 63.920306
Number Constraints Used in Cover:274
GRASP Method!
Number cuts repeat: 0
value: 63.920306
Number Constraints Used in Cover:286
GRASP Method!
Number cuts repeat: 0
value: 63.920306
Number Constraints Used in Cover:302
GRASP Method!
Number cuts repeat: 0
value: 63.920306
Number Constraints Used in Cover:312
GRASP Method!
Number cuts repeat: 0
value: 63.920306
Number Constraints Used in Cover:322
GRASP Method!
Number cuts repeat: 0
value: 63.920306
Number Constraints Used in Cover:339
GRASP Method!
Number cuts repeat: 0
value: 63.920306
Number Constraints Used in Cover:350
GRASP Method!
Number cuts repeat: 0
value: 63.920306
Number Constraints Used in Cover:368
GRASP Method!
Number cuts repeat: 0
value: 63.920306
Number Constraints Used in Cover:380
GRASP Method!
Number cuts repeat: 0
value: 63.920306
Number Constraints Used in Cover:393
GRASP Method!
Number cuts repeat: 0
value: 63.920306
Number Constraints Used in Cover:406
GRASP Method!
Number cuts repeat: 0
value: 63.920306
Number Constraints Used in Cover:422
GRASP Method!
Number cuts repeat: 0
value: 63.920306
Number Constraints Used in Cover:434
GRASP Method!
Number cuts repeat: 0
value: 63.920306
Number Constraints Used in Cover:444
GRASP Method!
Number cuts repeat: 0
value: 63.920306
Number Constraints Used in Cover:460
GRASP Method!
Number cuts repeat: 0
value: 63.920306
Number Constraints Used in Cover:478
GRASP Method!
Number cuts repeat: 0
value: 63.920306
Number Constraints Used in Cover:489
GRASP Method!
Number cuts repeat: 0
value: 63.920306
Number Constraints Used in Cover:496
GRASP Method!
Number cuts repeat: 0
value: 63.920306
Number Constraints Used in Cover:506
GRASP Method!
Number cuts repeat: 0
value: 63.920306
Number Constraints Used in Cover:522
GRASP Method!
Number cuts repeat: 0
value: 63.789567
Number Constraints Used in Cover:536
GRASP Method!
Number cuts repeat: 0
value: 63.789567
Number Constraints Used in Cover:555
GRASP Method!
Number cuts repeat: 0
value: 63.789567
Number Constraints Used in Cover:574
GRASP Method!
Number cuts repeat: 0
value: 63.789567
Number Constraints Used in Cover:592
GRASP Method!
Number cuts repeat: 0
value: 63.789567
Number Constraints Used in Cover:610
GRASP Method!
Number cuts repeat: 0
value: 63.789567
Number Constraints Used in Cover:620
GRASP Method!
Number cuts repeat: 0
value: 63.789567
Number Constraints Used in Cover:632
GRASP Method!
Number cuts repeat: 0
value: 63.789567
Number Constraints Used in Cover:647
GRASP Method!
Number cuts repeat: 0
value: 63.789567
Number Constraints Used in Cover:667
GRASP Method!
Number cuts repeat: 0
value: 63.789567
Number Constraints Used in Cover:674
GRASP Method!
Number cuts repeat: 0
value: 63.789567
Number Constraints Used in Cover:687
GRASP Method!
Number cuts repeat: 0
value: 63.789567
Number Constraints Used in Cover:704
GRASP Method!
Number cuts repeat: 0
value: 63.789567
Number Constraints Used in Cover:712
GRASP Method!
Number cuts repeat: 0
value: 63.789567
Number Constraints Used in Cover:728
GRASP Method!
Number cuts repeat: 0
value: 63.789567
Number Constraints Used in Cover:736
GRASP Method!
Number cuts repeat: 0
value: 63.789567
Number Constraints Used in Cover:744
GRASP Method!
Number cuts repeat: 0
value: 63.789567
Number Constraints Used in Cover:755
GRASP Method!
Number cuts repeat: 0
value: 63.789567
Number Constraints Used in Cover:766
GRASP Method!
Number cuts repeat: 0
value: 63.789567
Number Constraints Used in Cover:780
GRASP Method!
Number cuts repeat: 0
value: 63.789567
Number Constraints Used in Cover:803
GRASP Method!
Number cuts repeat: 0
value: 63.774890
Number Cuts Final: 815
